Route #1: 25 53 6 24 41 45
Route #2: 16 35 48 36 32 49 13 3
Route #3: 33 11 55 20 31 54 34 30 2 43 51 17 10
Route #4: 44 14 23 22 50 38 9 12
Route #5: 19 18 46 8 28 5 40 7 29 42
Route #6: 15 37 4 39 26 21 47
Route #7: 1 52 27
Cost 759